Welcome to the CBC MILP Solver 
Version: Trunk
Build Date: Apr 16 2020 

Starting solution of the Linear programming relaxation problem using Primal Simplex

Using Python-MIP package version 1.8.1
Machines:  4 Jobs:  4
Order: 
Job  0 : machine 0 ( 10 ) machine 3 ( 1 ) machine 2 ( 6 ) machine 1 ( 7 ) 
Job  1 : machine 0 ( 1 ) machine 3 ( 7 ) machine 1 ( 5 ) machine 2 ( 8 ) 
Job  2 : machine 3 ( 9 ) machine 2 ( 3 ) machine 1 ( 7 ) machine 0 ( 1 ) 
Job  3 : machine 1 ( 7 ) machine 3 ( 3 ) machine 0 ( 9 ) machine 2 ( 10 ) 
K:  44
Job  0 , e: machine  0 ( 0 ) machine  1 ( 17 ) machine  2 ( 11 ) machine  3 ( 10 ) 
Job  1 , e: machine  0 ( 0 ) machine  1 ( 8 ) machine  2 ( 13 ) machine  3 ( 1 ) 
Job  2 , e: machine  0 ( 19 ) machine  1 ( 12 ) machine  2 ( 9 ) machine  3 ( 0 ) 
Job  3 , e: machine  0 ( 10 ) machine  1 ( 0 ) machine  2 ( 19 ) machine  3 ( 7 ) 
Job  0 , f: machine  0 ( 14 ) machine  1 ( 0 ) machine  2 ( 7 ) machine  3 ( 13 ) 
Job  1 , f: machine  0 ( 20 ) machine  1 ( 8 ) machine  2 ( 0 ) machine  3 ( 13 ) 
Job  2 , f: machine  0 ( 0 ) machine  1 ( 1 ) machine  2 ( 8 ) machine  3 ( 11 ) 
Job  3 , f: machine  0 ( 10 ) machine  1 ( 22 ) machine  2 ( 0 ) machine  3 ( 19 ) 
EST and LST:
Job: 0 Machine: 0 EST: 0 LST: 20
Job: 0 Machine: 1 EST: 17 LST: 37
Job: 0 Machine: 2 EST: 11 LST: 31
Job: 0 Machine: 3 EST: 10 LST: 30
Job: 1 Machine: 0 EST: 0 LST: 23
Job: 1 Machine: 1 EST: 8 LST: 31
Job: 1 Machine: 2 EST: 13 LST: 36
Job: 1 Machine: 3 EST: 1 LST: 24
Job: 2 Machine: 0 EST: 19 LST: 43
Job: 2 Machine: 1 EST: 12 LST: 36
Job: 2 Machine: 2 EST: 9 LST: 33
Job: 2 Machine: 3 EST: 0 LST: 24
Job: 3 Machine: 0 EST: 10 LST: 25
Job: 3 Machine: 1 EST: 0 LST: 15
Job: 3 Machine: 2 EST: 19 LST: 34
Job: 3 Machine: 3 EST: 7 LST: 22
Order:
Job: 0 Machine: 0 = 0 
Job: 0 Machine: 1 = 3 
Job: 0 Machine: 2 = 2 
Job: 0 Machine: 3 = 1 
Job: 1 Machine: 0 = 0 
Job: 1 Machine: 1 = 2 
Job: 1 Machine: 2 = 3 
Job: 1 Machine: 3 = 1 
Job: 2 Machine: 0 = 3 
Job: 2 Machine: 1 = 2 
Job: 2 Machine: 2 = 1 
Job: 2 Machine: 3 = 0 
Job: 3 Machine: 0 = 2 
Job: 3 Machine: 1 = 0 
Job: 3 Machine: 2 = 3 
Job: 3 Machine: 3 = 1 
Distances:
Job 0, Machine 0 -> Machine 3: distance 10
Job 0, Machine 0 -> Machine 2: distance 11
Job 0, Machine 0 -> Machine 1: distance 17
Job 0, Machine 3 -> Machine 2: distance 1
Job 0, Machine 3 -> Machine 1: distance 7
Job 0, Machine 2 -> Machine 1: distance 6
Job 1, Machine 0 -> Machine 3: distance 1
Job 1, Machine 0 -> Machine 1: distance 8
Job 1, Machine 0 -> Machine 2: distance 13
Job 1, Machine 3 -> Machine 1: distance 7
Job 1, Machine 3 -> Machine 2: distance 12
Job 1, Machine 1 -> Machine 2: distance 5
Job 2, Machine 3 -> Machine 2: distance 9
Job 2, Machine 3 -> Machine 1: distance 12
Job 2, Machine 3 -> Machine 0: distance 19
Job 2, Machine 2 -> Machine 1: distance 3
Job 2, Machine 2 -> Machine 0: distance 10
Job 2, Machine 1 -> Machine 0: distance 7
Job 3, Machine 1 -> Machine 3: distance 7
Job 3, Machine 1 -> Machine 0: distance 10
Job 3, Machine 1 -> Machine 2: distance 19
Job 3, Machine 3 -> Machine 0: distance 3
Job 3, Machine 3 -> Machine 2: distance 12
Job 3, Machine 0 -> Machine 2: distance 9
McCormic linearization
[(1, 2), (3, 2), (0, 0), (3, 3), (3, 1), (2, 0), (1, 1), (2, 3), (2, 2), (1, 0), (0, 2)]
obj:  0.6000000000000001
solutions:  1
+ x(0,0) + 0.10000000000000002x(1,0) 
C:  29.0
x(0,0) = 0.73	 x(0,1) = 19.06	 x(0,2) = 11.73	 x(0,3) = 10.73	 
x(1,0) = 2.73	 x(1,1) = 10.73	 x(1,2) = 20.27	 x(1,3) = 3.73	 
x(2,0) = 24.24	 x(2,1) = 17.24	 x(2,2) = 14.24	 x(2,3) = 5.24	 
x(3,0) = 10.00	 x(3,1) = 0.00	 x(3,2) = 19.00	 x(3,3) = 7.00	 
y(0,1,0) = 0.13	 y(1,0,0) = 0.87	 
y(0,2,0) = 0.56	 y(2,0,0) = 0.44	 
y(0,3,0) = 0.96	 y(3,0,0) = 0.04	 
y(1,2,0) = 0.51	 y(2,1,0) = 0.49	 
y(1,3,0) = 0.74	 y(3,1,0) = 0.26	 
y(2,3,0) = 0.00	 y(3,2,0) = 1.00	 
y(0,1,1) = 0.00	 y(1,0,1) = 1.00	 
y(0,2,1) = 0.20	 y(2,0,1) = 0.80	 
y(0,3,1) = 0.00	 y(3,0,1) = 1.00	 
y(1,2,1) = 0.39	 y(2,1,1) = 0.61	 
y(1,3,1) = 0.16	 y(3,1,1) = 0.84	 
y(2,3,1) = 0.00	 y(3,2,1) = 1.00	 
y(0,1,2) = 0.76	 y(1,0,2) = 0.24	 
y(0,2,2) = 0.46	 y(2,0,2) = 0.54	 
y(0,3,2) = 0.93	 y(3,0,2) = 0.07	 
y(1,2,2) = 0.00	 y(2,1,2) = 1.00	 
y(1,3,2) = 0.28	 y(3,1,2) = 0.72	 
y(2,3,2) = 0.92	 y(3,2,2) = 0.08	 
y(0,1,3) = 0.00	 y(1,0,3) = 1.00	 
y(0,2,3) = 0.15	 y(2,0,3) = 0.85	 
y(0,3,3) = 0.04	 y(3,0,3) = 0.96	 
y(1,2,3) = 0.33	 y(2,1,3) = 0.67	 
y(1,3,3) = 0.26	 y(3,1,3) = 0.74	 
y(2,3,3) = 0.19	 y(3,2,3) = 0.81	 
obj:  0.7674955370515626
solutions:  1
+ 0.06306306306306307x(1,3) + 0.02702702702702703x(3,3) + 0.06552006552006552x(2,3) 
[(1, 2), (3, 2), (0, 0), (1, 3), (3, 3), (3, 0), (2, 1), (2, 0), (1, 1), (2, 3), (2, 2), (1, 0), (0, 2)]
cliques:  1 mip: 56
C:  29.000000000000004
x(0,0) = 0.20	 x(0,1) = 22.00	 x(0,2) = 14.39	 x(0,3) = 12.71	 
x(1,0) = 8.00	 x(1,1) = 16.00	 x(1,2) = 21.00	 x(1,3) = 9.00	 
x(2,0) = 22.71	 x(2,1) = 15.71	 x(2,2) = 12.71	 x(2,3) = 3.71	 
x(3,0) = 10.00	 x(3,1) = 0.00	 x(3,2) = 19.00	 x(3,3) = 7.00	 
y(0,1,0) = 0.37	 y(1,0,0) = 0.63	 
y(0,2,0) = 0.53	 y(2,0,0) = 0.47	 
y(0,3,0) = 0.99	 y(3,0,0) = 0.01	 
y(1,2,0) = 1.00	 y(2,1,0) = 0.00	 
y(1,3,0) = 0.96	 y(3,1,0) = 0.04	 
y(2,3,0) = 0.00	 y(3,2,0) = 1.00	 
y(0,1,1) = 0.00	 y(1,0,1) = 1.00	 
y(0,2,1) = 0.03	 y(2,0,1) = 0.97	 
y(0,3,1) = 0.00	 y(3,0,1) = 1.00	 
y(1,2,1) = 0.19	 y(2,1,1) = 0.81	 
y(1,3,1) = 0.42	 y(3,1,1) = 0.58	 
y(2,3,1) = 0.00	 y(3,2,1) = 1.00	 
y(0,1,2) = 0.93	 y(1,0,2) = 0.07	 
y(0,2,2) = 0.18	 y(2,0,2) = 0.82	 
y(0,3,2) = 0.57	 y(3,0,2) = 0.43	 
y(1,2,2) = 0.00	 y(2,1,2) = 1.00	 
y(1,3,2) = 0.26	 y(3,1,2) = 0.74	 
y(2,3,2) = 0.85	 y(3,2,2) = 0.15	 
y(0,1,3) = 0.27	 y(1,0,3) = 0.73	 
y(0,2,3) = 0.00	 y(2,0,3) = 1.00	 
y(0,3,3) = 0.14	 y(3,0,3) = 0.86	 
y(1,2,3) = 0.12	 y(2,1,3) = 0.88	 
y(1,3,3) = 0.04	 y(3,1,3) = 0.96	 
y(2,3,3) = 0.25	 y(3,2,3) = 0.75	 
obj:  0.8291118421052635
solutions:  1
+ 0.06578947368420843x(0,0) + 0.00921052631578937x(1,3) + 0.09605263157894756x(3,3) + 0.011842105263157944x(2,3) + 0.0013157894736842261x(0,3) 
[(1, 2), (3, 2), (0, 0), (1, 3), (3, 3), (3, 1), (2, 1), (2, 0), (1, 1), (2, 3), (1, 0), (0, 2), (0, 3)]
cliques:  1 mip: 32
C:  30.11475409836066
x(0,0) = 2.56	 x(0,1) = 20.76	 x(0,2) = 13.56	 x(0,3) = 12.56	 
x(1,0) = 1.48	 x(1,1) = 9.48	 x(1,2) = 14.48	 x(1,3) = 2.48	 
x(2,0) = 29.11	 x(2,1) = 22.11	 x(2,2) = 19.11	 x(2,3) = 10.11	 
x(3,0) = 10.00	 x(3,1) = -0.00	 x(3,2) = 19.00	 x(3,3) = 7.00	 
y(0,1,0) = 0.00	 y(1,0,0) = 1.00	 
y(0,2,0) = 0.89	 y(2,0,0) = 0.11	 
y(0,3,0) = 0.87	 y(3,0,0) = 0.13	 
y(1,2,0) = 1.00	 y(2,1,0) = 0.00	 
y(1,3,0) = 0.81	 y(3,1,0) = 0.19	 
y(2,3,0) = 0.00	 y(3,2,0) = 1.00	 
y(0,1,1) = 0.00	 y(1,0,1) = 1.00	 
y(0,2,1) = 0.32	 y(2,0,1) = 0.68	 
y(0,3,1) = 0.00	 y(3,0,1) = 1.00	 
y(1,2,1) = 0.76	 y(2,1,1) = 0.24	 
y(1,3,1) = 0.10	 y(3,1,1) = 0.90	 
y(2,3,1) = 0.00	 y(3,2,1) = 1.00	 
y(0,1,2) = 0.55	 y(1,0,2) = 0.45	 
y(0,2,2) = 0.35	 y(2,0,2) = 0.65	 
y(0,3,2) = 0.97	 y(3,0,2) = 0.03	 
y(1,2,2) = 0.33	 y(2,1,2) = 0.67	 
y(1,3,2) = 0.86	 y(3,1,2) = 0.14	 
y(2,3,2) = 0.82	 y(3,2,2) = 0.18	 
y(0,1,3) = 0.03	 y(1,0,3) = 0.97	 
y(0,2,3) = 0.28	 y(2,0,3) = 0.72	 
y(0,3,3) = 0.13	 y(3,0,3) = 0.87	 
y(1,2,3) = 0.52	 y(2,1,3) = 0.48	 
y(1,3,3) = 0.67	 y(3,1,3) = 0.33	 
y(2,3,3) = 0.00	 y(3,2,3) = 1.00	 
obj:  0.8839859609249333
solutions:  1
+ 0.006122448979591825x(1,3) + 0.10010465724751437x(3,3) + 0.014599686028257484x(2,3) + 0.0016221873364730389x(0,3) 
[(1, 2), (0, 1), (1, 3), (3, 3), (2, 1), (1, 1), (2, 3), (2, 2), (0, 3), (0, 2)]
cliques:  1 mip: 80
C:  31.000000000000004
x(0,0) = 0.98	 x(0,1) = 18.32	 x(0,2) = 12.19	 x(0,3) = 11.19	 
x(1,0) = 0.22	 x(1,1) = 8.22	 x(1,2) = 13.22	 x(1,3) = 1.22	 
x(2,0) = 30.00	 x(2,1) = 23.00	 x(2,2) = 19.78	 x(2,3) = 10.78	 
x(3,0) = 11.19	 x(3,1) = 1.19	 x(3,2) = 20.89	 x(3,3) = 8.19	 
y(0,1,0) = 0.01	 y(1,0,0) = 0.99	 
y(0,2,0) = 0.98	 y(2,0,0) = 0.02	 
y(0,3,0) = 1.00	 y(3,0,0) = 0.00	 
y(1,2,0) = 1.00	 y(2,1,0) = 0.00	 
y(1,3,0) = 0.90	 y(3,1,0) = 0.10	 
y(2,3,0) = 0.00	 y(3,2,0) = 1.00	 
y(0,1,1) = 0.00	 y(1,0,1) = 1.00	 
y(0,2,1) = 0.56	 y(2,0,1) = 0.44	 
y(0,3,1) = 0.00	 y(3,0,1) = 1.00	 
y(1,2,1) = 0.98	 y(2,1,1) = 0.02	 
y(1,3,1) = 0.23	 y(3,1,1) = 0.77	 
y(2,3,1) = 0.00	 y(3,2,1) = 1.00	 
y(0,1,2) = 0.64	 y(1,0,2) = 0.36	 
y(0,2,2) = 0.42	 y(2,0,2) = 0.58	 
y(0,3,2) = 0.84	 y(3,0,2) = 0.16	 
y(1,2,2) = 0.95	 y(2,1,2) = 0.05	 
y(1,3,2) = 0.99	 y(3,1,2) = 0.01	 
y(2,3,2) = 0.41	 y(3,2,2) = 0.59	 
y(0,1,3) = 0.00	 y(1,0,3) = 1.00	 
y(0,2,3) = 0.93	 y(2,0,3) = 0.07	 
y(0,3,3) = 0.00	 y(3,0,3) = 1.00	 
y(1,2,3) = 0.98	 y(2,1,3) = 0.02	 
y(1,3,3) = 0.97	 y(3,1,3) = 0.03	 
y(2,3,3) = 0.02	 y(3,2,3) = 0.98	 
obj:  0.8025286579467086
solutions:  1
+ 0.022759601706970153x(1,2) + 0.0177809388335704x(3,2) + 0.010668563300142247x(0,2) 
[(0, 1), (1, 2), (3, 2), (3, 0), (3, 1), (2, 1), (1, 1), (2, 3), (2, 2), (1, 0), (0, 2), (0, 3)]
cliques:  1 mip: 70
C:  32.433253843334214
x(0,0) = 1.15	 x(0,1) = 25.43	 x(0,2) = 19.43	 x(0,3) = 11.15	 
x(1,0) = 0.15	 x(1,1) = 13.97	 x(1,2) = 18.97	 x(1,3) = 1.15	 
x(2,0) = 31.43	 x(2,1) = 24.43	 x(2,2) = 19.73	 x(2,3) = 10.73	 
x(3,0) = 11.30	 x(3,1) = 1.30	 x(3,2) = 20.30	 x(3,3) = 8.30	 
y(0,1,0) = 0.00	 y(1,0,0) = 1.00	 
y(0,2,0) = 0.91	 y(2,0,0) = 0.09	 
y(0,3,0) = 1.00	 y(3,0,0) = 0.00	 
y(1,2,0) = 1.00	 y(2,1,0) = 0.00	 
y(1,3,0) = 0.87	 y(3,1,0) = 0.13	 
y(2,3,0) = 0.00	 y(3,2,0) = 1.00	 
y(0,1,1) = 0.00	 y(1,0,1) = 1.00	 
y(0,2,1) = 0.39	 y(2,0,1) = 0.61	 
y(0,3,1) = 0.00	 y(3,0,1) = 1.00	 
y(1,2,1) = 0.88	 y(2,1,1) = 0.12	 
y(1,3,1) = 0.30	 y(3,1,1) = 0.70	 
y(2,3,1) = 0.00	 y(3,2,1) = 1.00	 
y(0,1,2) = 0.58	 y(1,0,2) = 0.42	 
y(0,2,2) = 0.16	 y(2,0,2) = 0.84	 
y(0,3,2) = 0.71	 y(3,0,2) = 0.29	 
y(1,2,2) = 0.27	 y(2,1,2) = 0.73	 
y(1,3,2) = 0.73	 y(3,1,2) = 0.27	 
y(2,3,2) = 0.67	 y(3,2,2) = 0.33	 
y(0,1,3) = 0.00	 y(1,0,3) = 1.00	 
y(0,2,3) = 0.74	 y(2,0,3) = 0.26	 
y(0,3,3) = 0.01	 y(3,0,3) = 0.99	 
y(1,2,3) = 0.84	 y(2,1,3) = 0.16	 
y(1,3,3) = 0.98	 y(3,1,3) = 0.02	 
y(2,3,3) = 0.02	 y(3,2,3) = 0.98	 
obj:  0.9558100891027159
solutions:  1
+ 0.01493039964077233x(1,2) + 0.02346205657835654x(3,2) + 0.010103277952402331x(0,2) 
[(1, 2), (0, 1), (3, 2), (3, 1), (2, 1), (1, 1), (2, 3), (2, 2), (0, 3), (0, 2)]
cliques:  1 mip: 87
C:  33.70833271718108
x(0,0) = 1.00	 x(0,1) = 26.71	 x(0,2) = 20.71	 x(0,3) = 11.00	 
x(1,0) = 0.00	 x(1,1) = 8.39	 x(1,2) = 15.71	 x(1,3) = 1.00	 
x(2,0) = 32.71	 x(2,1) = 25.71	 x(2,2) = 21.23	 x(2,3) = 12.00	 
x(3,0) = 11.00	 x(3,1) = 0.00	 x(3,2) = 23.71	 x(3,3) = 8.00	 
y(0,1,0) = 0.00	 y(1,0,0) = 1.00	 
y(0,2,0) = 0.88	 y(2,0,0) = 0.12	 
y(0,3,0) = 1.00	 y(3,0,0) = 0.00	 
y(1,2,0) = 1.00	 y(2,1,0) = 0.00	 
y(1,3,0) = 0.95	 y(3,1,0) = 0.05	 
y(2,3,0) = 0.00	 y(3,2,0) = 1.00	 
y(0,1,1) = 0.00	 y(1,0,1) = 1.00	 
y(0,2,1) = 0.23	 y(2,0,1) = 0.77	 
y(0,3,1) = 0.00	 y(3,0,1) = 1.00	 
y(1,2,1) = 0.94	 y(2,1,1) = 0.06	 
y(1,3,1) = 0.06	 y(3,1,1) = 0.94	 
y(2,3,1) = 0.00	 y(3,2,1) = 1.00	 
y(0,1,2) = 0.09	 y(1,0,2) = 0.91	 
y(0,2,2) = 0.16	 y(2,0,2) = 0.84	 
y(0,3,2) = 0.42	 y(3,0,2) = 0.58	 
y(1,2,2) = 0.43	 y(2,1,2) = 0.57	 
y(1,3,2) = 1.00	 y(3,1,2) = 0.00	 
y(2,3,2) = 0.36	 y(3,2,2) = 0.64	 
y(0,1,3) = 0.00	 y(1,0,3) = 1.00	 
y(0,2,3) = 0.80	 y(2,0,3) = 0.20	 
y(0,3,3) = 0.00	 y(3,0,3) = 1.00	 
y(1,2,3) = 0.80	 y(2,1,3) = 0.20	 
y(1,3,3) = 1.00	 y(3,1,3) = 0.00	 
y(2,3,3) = 0.00	 y(3,2,3) = 1.00	 
obj:  0.9479236897767545
solutions:  1
+ 0.012397085074996332x(1,2) + 0.02014526324686903x(3,2) + 0.012298471898263406x(1,3) + 0.017569245568947723x(0,3) + 0.0033810232022717214x(0,2) 
[(1, 2), (0, 1), (3, 2), (1, 3), (0, 0), (2, 1), (2, 0), (2, 3), (2, 2), (0, 3), (0, 2)]
cliques:  1 mip: 59
C:  34.03171469812093
x(0,0) = 1.01	 x(0,1) = 26.15	 x(0,2) = 19.48	 x(0,3) = 14.07	 
x(1,0) = 0.00	 x(1,1) = 11.03	 x(1,2) = 16.03	 x(1,3) = 1.00	 
x(2,0) = 33.03	 x(2,1) = 24.39	 x(2,2) = 20.99	 x(2,3) = 11.99	 
x(3,0) = 10.95	 x(3,1) = 0.00	 x(3,2) = 24.03	 x(3,3) = 7.95	 
y(0,1,0) = 0.63	 y(1,0,0) = 0.37	 
y(0,2,0) = 0.86	 y(2,0,0) = 0.14	 
y(0,3,0) = 1.00	 y(3,0,0) = 0.00	 
y(1,2,0) = 1.00	 y(2,1,0) = 0.00	 
y(1,3,0) = 0.72	 y(3,1,0) = 0.28	 
y(2,3,0) = 0.00	 y(3,2,0) = 1.00	 
y(0,1,1) = 0.00	 y(1,0,1) = 1.00	 
y(0,2,1) = 0.73	 y(2,0,1) = 0.27	 
y(0,3,1) = 0.00	 y(3,0,1) = 1.00	 
y(1,2,1) = 0.92	 y(2,1,1) = 0.08	 
y(1,3,1) = 0.17	 y(3,1,1) = 0.83	 
y(2,3,1) = 0.00	 y(3,2,1) = 1.00	 
y(0,1,2) = 0.61	 y(1,0,2) = 0.39	 
y(0,2,2) = 0.18	 y(2,0,2) = 0.82	 
y(0,3,2) = 0.52	 y(3,0,2) = 0.48	 
y(1,2,2) = 0.35	 y(2,1,2) = 0.65	 
y(1,3,2) = 1.00	 y(3,1,2) = 0.00	 
y(2,3,2) = 0.37	 y(3,2,2) = 0.63	 
y(0,1,3) = 0.01	 y(1,0,3) = 0.99	 
y(0,2,3) = 0.30	 y(2,0,3) = 0.70	 
y(0,3,3) = 0.16	 y(3,0,3) = 0.84	 
y(1,2,3) = 0.78	 y(2,1,3) = 0.22	 
y(1,3,3) = 0.52	 y(3,1,3) = 0.48	 
y(2,3,3) = 0.00	 y(3,2,3) = 1.00	 
obj:  0.9199613752200014
solutions:  1
+ 0.012573344509639555x(1,2) + 0.021374685666387266x(3,2) + 0.014249790444258177x(1,3) + 0.01802179379715005x(3,3) + 0.0033528918692372132x(0,3) 
[(1, 2), (3, 2), (1, 3), (0, 0), (3, 3), (3, 0), (2, 3), (2, 2), (1, 0), (0, 2), (0, 3)]
cliques:  1 mip: 61
C:  34.385544588523864
x(0,0) = 0.57	 x(0,1) = 23.05	 x(0,2) = 17.05	 x(0,3) = 11.07	 
x(1,0) = 5.45	 x(1,1) = 13.45	 x(1,2) = 19.20	 x(1,3) = 6.45	 
x(2,0) = 33.39	 x(2,1) = 25.54	 x(2,2) = 22.54	 x(2,3) = 13.54	 
x(3,0) = 10.58	 x(3,1) = 0.58	 x(3,2) = 23.06	 x(3,3) = 7.58	 
y(0,1,0) = 0.83	 y(1,0,0) = 0.17	 
y(0,2,0) = 0.98	 y(2,0,0) = 0.02	 
y(0,3,0) = 0.96	 y(3,0,0) = 0.04	 
y(1,2,0) = 1.00	 y(2,1,0) = 0.00	 
y(1,3,0) = 0.96	 y(3,1,0) = 0.04	 
y(2,3,0) = 0.00	 y(3,2,0) = 1.00	 
y(0,1,1) = 0.00	 y(1,0,1) = 1.00	 
y(0,2,1) = 0.86	 y(2,0,1) = 0.14	 
y(0,3,1) = 0.00	 y(3,0,1) = 1.00	 
y(1,2,1) = 0.89	 y(2,1,1) = 0.11	 
y(1,3,1) = 0.16	 y(3,1,1) = 0.84	 
y(2,3,1) = 0.00	 y(3,2,1) = 1.00	 
y(0,1,2) = 0.84	 y(1,0,2) = 0.16	 
y(0,2,2) = 0.38	 y(2,0,2) = 0.62	 
y(0,3,2) = 0.90	 y(3,0,2) = 0.10	 
y(1,2,2) = 0.48	 y(2,1,2) = 0.52	 
y(1,3,2) = 0.83	 y(3,1,2) = 0.17	 
y(2,3,2) = 0.72	 y(3,2,2) = 0.28	 
y(0,1,3) = 0.14	 y(1,0,3) = 0.86	 
y(0,2,3) = 0.89	 y(2,0,3) = 0.11	 
y(0,3,3) = 0.02	 y(3,0,3) = 0.98	 
y(1,2,3) = 0.68	 y(2,1,3) = 0.32	 
y(1,3,3) = 0.49	 y(3,1,3) = 0.51	 
y(2,3,3) = 0.00	 y(3,2,3) = 1.00	 
obj:  0.9670870062521878
solutions:  1
+ 0.009831907892899235x(1,2) + 0.015976850325961276x(3,2) + 0.0048768497673301395x(1,3) + 0.043891647905971186x(3,3) + 0.002681429425336156x(0,2) 
[(1, 2), (3, 2), (1, 3), (0, 0), (3, 3), (2, 3), (2, 2), (1, 0), (0, 2)]
cliques:  1 mip: 90
C:  34.99999721493596
x(0,0) = 0.71	 x(0,1) = 27.72	 x(0,2) = 20.16	 x(0,3) = 10.71	 
x(1,0) = 4.36	 x(1,1) = 12.65	 x(1,2) = 18.54	 x(1,3) = 5.65	 
x(2,0) = 34.00	 x(2,1) = 25.22	 x(2,2) = 19.53	 x(2,3) = 10.53	 
x(3,0) = 10.93	 x(3,1) = 0.93	 x(3,2) = 24.27	 x(3,3) = 7.93	 
y(0,1,0) = 0.79	 y(1,0,0) = 0.21	 
y(0,2,0) = 0.93	 y(2,0,0) = 0.07	 
y(0,3,0) = 0.90	 y(3,0,0) = 0.10	 
y(1,2,0) = 1.00	 y(2,1,0) = 0.00	 
y(1,3,0) = 0.93	 y(3,1,0) = 0.07	 
y(2,3,0) = 0.00	 y(3,2,0) = 1.00	 
y(0,1,1) = 0.00	 y(1,0,1) = 1.00	 
y(0,2,1) = 0.70	 y(2,0,1) = 0.30	 
y(0,3,1) = 0.00	 y(3,0,1) = 1.00	 
y(1,2,1) = 0.81	 y(2,1,1) = 0.19	 
y(1,3,1) = 0.11	 y(3,1,1) = 0.89	 
y(2,3,1) = 0.00	 y(3,2,1) = 1.00	 
y(0,1,2) = 0.28	 y(1,0,2) = 0.72	 
y(0,2,2) = 0.10	 y(2,0,2) = 0.90	 
y(0,3,2) = 0.82	 y(3,0,2) = 0.18	 
y(1,2,2) = 0.29	 y(2,1,2) = 0.71	 
y(1,3,2) = 0.91	 y(3,1,2) = 0.09	 
y(2,3,2) = 0.83	 y(3,2,2) = 0.17	 
y(0,1,3) = 0.11	 y(1,0,3) = 0.89	 
y(0,2,3) = 0.65	 y(2,0,3) = 0.35	 
y(0,3,3) = 0.01	 y(3,0,3) = 0.99	 
y(1,2,3) = 0.46	 y(2,1,3) = 0.54	 
y(1,3,3) = 0.64	 y(3,1,3) = 0.36	 
y(2,3,3) = 0.02	 y(3,2,3) = 0.98	 
obj:  0.9903087804776658
solutions:  1
+ 0.005313170532338844x(1,3) + 0.04281189332788395x(3,3) + 0.012669868192500265x(2,3) + 0.04546847859405328x(0,3) 
[(0, 1), (1, 2), (1, 3), (0, 0), (3, 3), (1, 0), (2, 1), (1, 1), (2, 3), (2, 2), (0, 3), (0, 2)]
cliques:  1 mip: 91
C:  34.99999721493596
x(0,0) = 0.71	 x(0,1) = 27.72	 x(0,2) = 20.16	 x(0,3) = 10.93	 
x(1,0) = 4.37	 x(1,1) = 12.68	 x(1,2) = 18.56	 x(1,3) = 5.68	 
x(2,0) = 34.00	 x(2,1) = 25.22	 x(2,2) = 19.52	 x(2,3) = 10.52	 
x(3,0) = 10.93	 x(3,1) = 0.93	 x(3,2) = 24.27	 x(3,3) = 7.93	 
y(0,1,0) = 0.79	 y(1,0,0) = 0.21	 
y(0,2,0) = 0.93	 y(2,0,0) = 0.07	 
y(0,3,0) = 0.90	 y(3,0,0) = 0.10	 
y(1,2,0) = 1.00	 y(2,1,0) = 0.00	 
y(1,3,0) = 0.93	 y(3,1,0) = 0.07	 
y(2,3,0) = 0.00	 y(3,2,0) = 1.00	 
y(0,1,1) = 0.00	 y(1,0,1) = 1.00	 
y(0,2,1) = 0.70	 y(2,0,1) = 0.30	 
y(0,3,1) = 0.00	 y(3,0,1) = 1.00	 
y(1,2,1) = 0.81	 y(2,1,1) = 0.19	 
y(1,3,1) = 0.11	 y(3,1,1) = 0.89	 
y(2,3,1) = 0.00	 y(3,2,1) = 1.00	 
y(0,1,2) = 0.28	 y(1,0,2) = 0.72	 
y(0,2,2) = 0.10	 y(2,0,2) = 0.90	 
y(0,3,2) = 0.82	 y(3,0,2) = 0.18	 
y(1,2,2) = 0.29	 y(2,1,2) = 0.71	 
y(1,3,2) = 0.91	 y(3,1,2) = 0.09	 
y(2,3,2) = 0.83	 y(3,2,2) = 0.17	 
y(0,1,3) = 0.10	 y(1,0,3) = 0.90	 
y(0,2,3) = 0.63	 y(2,0,3) = 0.37	 
y(0,3,3) = 0.00	 y(3,0,3) = 1.00	 
y(1,2,3) = 0.45	 y(2,1,3) = 0.55	 
y(1,3,3) = 0.64	 y(3,1,3) = 0.36	 
y(2,3,3) = 0.02	 y(3,2,3) = 0.98	 
obj:  1.0
erro
[(0, 1), (1, 2), (1, 3), (0, 0), (3, 3), (1, 0), (2, 1), (1, 1), (2, 3), (2, 2), (0, 3), (0, 2)]
cliques:  0 mip: 97
C:  34.99999721493596
x(0,0) = 0.71	 x(0,1) = 27.72	 x(0,2) = 20.16	 x(0,3) = 10.93	 
x(1,0) = 4.37	 x(1,1) = 12.68	 x(1,2) = 18.56	 x(1,3) = 5.68	 
x(2,0) = 34.00	 x(2,1) = 25.22	 x(2,2) = 19.52	 x(2,3) = 10.52	 
x(3,0) = 10.93	 x(3,1) = 0.93	 x(3,2) = 24.27	 x(3,3) = 7.93	 
y(0,1,0) = 0.79	 y(1,0,0) = 0.21	 
y(0,2,0) = 0.93	 y(2,0,0) = 0.07	 
y(0,3,0) = 0.90	 y(3,0,0) = 0.10	 
y(1,2,0) = 1.00	 y(2,1,0) = 0.00	 
y(1,3,0) = 0.93	 y(3,1,0) = 0.07	 
y(2,3,0) = 0.00	 y(3,2,0) = 1.00	 
y(0,1,1) = 0.00	 y(1,0,1) = 1.00	 
y(0,2,1) = 0.70	 y(2,0,1) = 0.30	 
y(0,3,1) = 0.00	 y(3,0,1) = 1.00	 
y(1,2,1) = 0.81	 y(2,1,1) = 0.19	 
y(1,3,1) = 0.11	 y(3,1,1) = 0.89	 
y(2,3,1) = 0.00	 y(3,2,1) = 1.00	 
y(0,1,2) = 0.28	 y(1,0,2) = 0.72	 
y(0,2,2) = 0.10	 y(2,0,2) = 0.90	 
y(0,3,2) = 0.82	 y(3,0,2) = 0.18	 
y(1,2,2) = 0.29	 y(2,1,2) = 0.71	 
y(1,3,2) = 0.91	 y(3,1,2) = 0.09	 
y(2,3,2) = 0.83	 y(3,2,2) = 0.17	 
y(0,1,3) = 0.10	 y(1,0,3) = 0.90	 
y(0,2,3) = 0.63	 y(2,0,3) = 0.37	 
y(0,3,3) = 0.00	 y(3,0,3) = 1.00	 
y(1,2,3) = 0.45	 y(2,1,3) = 0.55	 
y(1,3,3) = 0.64	 y(3,1,3) = 0.36	 
y(2,3,3) = 0.02	 y(3,2,3) = 0.98	 
obj:  1.0
erro
[(0, 1), (1, 2), (1, 3), (0, 0), (3, 3), (1, 0), (2, 1), (1, 1), (2, 3), (2, 2), (0, 3), (0, 2)]
cliques:  0 mip: 97
C:  34.99999721493596
x(0,0) = 0.71	 x(0,1) = 27.72	 x(0,2) = 20.16	 x(0,3) = 10.93	 
x(1,0) = 4.37	 x(1,1) = 12.68	 x(1,2) = 18.56	 x(1,3) = 5.68	 
x(2,0) = 34.00	 x(2,1) = 25.22	 x(2,2) = 19.52	 x(2,3) = 10.52	 
x(3,0) = 10.93	 x(3,1) = 0.93	 x(3,2) = 24.27	 x(3,3) = 7.93	 
y(0,1,0) = 0.79	 y(1,0,0) = 0.21	 
y(0,2,0) = 0.93	 y(2,0,0) = 0.07	 
y(0,3,0) = 0.90	 y(3,0,0) = 0.10	 
y(1,2,0) = 1.00	 y(2,1,0) = 0.00	 
y(1,3,0) = 0.93	 y(3,1,0) = 0.07	 
y(2,3,0) = 0.00	 y(3,2,0) = 1.00	 
y(0,1,1) = 0.00	 y(1,0,1) = 1.00	 
y(0,2,1) = 0.70	 y(2,0,1) = 0.30	 
y(0,3,1) = 0.00	 y(3,0,1) = 1.00	 
y(1,2,1) = 0.81	 y(2,1,1) = 0.19	 
y(1,3,1) = 0.11	 y(3,1,1) = 0.89	 
y(2,3,1) = 0.00	 y(3,2,1) = 1.00	 
y(0,1,2) = 0.28	 y(1,0,2) = 0.72	 
y(0,2,2) = 0.10	 y(2,0,2) = 0.90	 
y(0,3,2) = 0.82	 y(3,0,2) = 0.18	 
y(1,2,2) = 0.29	 y(2,1,2) = 0.71	 
y(1,3,2) = 0.91	 y(3,1,2) = 0.09	 
y(2,3,2) = 0.83	 y(3,2,2) = 0.17	 
y(0,1,3) = 0.10	 y(1,0,3) = 0.90	 
y(0,2,3) = 0.63	 y(2,0,3) = 0.37	 
y(0,3,3) = 0.00	 y(3,0,3) = 1.00	 
y(1,2,3) = 0.45	 y(2,1,3) = 0.55	 
y(1,3,3) = 0.64	 y(3,1,3) = 0.36	 
y(2,3,3) = 0.02	 y(3,2,3) = 0.98	 
obj:  1.0
erro
[(0, 1), (1, 2), (1, 3), (0, 0), (3, 3), (1, 0), (2, 1), (1, 1), (2, 3), (2, 2), (0, 3), (0, 2)]
cliques:  0 mip: 97
C:  34.99999721493596
x(0,0) = 0.71	 x(0,1) = 27.72	 x(0,2) = 20.16	 x(0,3) = 10.93	 
x(1,0) = 4.37	 x(1,1) = 12.68	 x(1,2) = 18.56	 x(1,3) = 5.68	 
x(2,0) = 34.00	 x(2,1) = 25.22	 x(2,2) = 19.52	 x(2,3) = 10.52	 
x(3,0) = 10.93	 x(3,1) = 0.93	 x(3,2) = 24.27	 x(3,3) = 7.93	 
y(0,1,0) = 0.79	 y(1,0,0) = 0.21	 
y(0,2,0) = 0.93	 y(2,0,0) = 0.07	 
y(0,3,0) = 0.90	 y(3,0,0) = 0.10	 
y(1,2,0) = 1.00	 y(2,1,0) = 0.00	 
y(1,3,0) = 0.93	 y(3,1,0) = 0.07	 
y(2,3,0) = 0.00	 y(3,2,0) = 1.00	 
y(0,1,1) = 0.00	 y(1,0,1) = 1.00	 
y(0,2,1) = 0.70	 y(2,0,1) = 0.30	 
y(0,3,1) = 0.00	 y(3,0,1) = 1.00	 
y(1,2,1) = 0.81	 y(2,1,1) = 0.19	 
y(1,3,1) = 0.11	 y(3,1,1) = 0.89	 
y(2,3,1) = 0.00	 y(3,2,1) = 1.00	 
y(0,1,2) = 0.28	 y(1,0,2) = 0.72	 
y(0,2,2) = 0.10	 y(2,0,2) = 0.90	 
y(0,3,2) = 0.82	 y(3,0,2) = 0.18	 
y(1,2,2) = 0.29	 y(2,1,2) = 0.71	 
y(1,3,2) = 0.91	 y(3,1,2) = 0.09	 
y(2,3,2) = 0.83	 y(3,2,2) = 0.17	 
y(0,1,3) = 0.10	 y(1,0,3) = 0.90	 
y(0,2,3) = 0.63	 y(2,0,3) = 0.37	 
y(0,3,3) = 0.00	 y(3,0,3) = 1.00	 
y(1,2,3) = 0.45	 y(2,1,3) = 0.55	 
y(1,3,3) = 0.64	 y(3,1,3) = 0.36	 
y(2,3,3) = 0.02	 y(3,2,3) = 0.98	 
obj:  1.0
erro
[(0, 1), (1, 2), (1, 3), (0, 0), (3, 3), (1, 0), (2, 1), (1, 1), (2, 3), (2, 2), (0, 3), (0, 2)]
cliques:  0 mip: 97
C:  34.99999721493596
x(0,0) = 0.71	 x(0,1) = 27.72	 x(0,2) = 20.16	 x(0,3) = 10.93	 
x(1,0) = 4.37	 x(1,1) = 12.68	 x(1,2) = 18.56	 x(1,3) = 5.68	 
x(2,0) = 34.00	 x(2,1) = 25.22	 x(2,2) = 19.52	 x(2,3) = 10.52	 
x(3,0) = 10.93	 x(3,1) = 0.93	 x(3,2) = 24.27	 x(3,3) = 7.93	 
y(0,1,0) = 0.79	 y(1,0,0) = 0.21	 
y(0,2,0) = 0.93	 y(2,0,0) = 0.07	 
y(0,3,0) = 0.90	 y(3,0,0) = 0.10	 
y(1,2,0) = 1.00	 y(2,1,0) = 0.00	 
y(1,3,0) = 0.93	 y(3,1,0) = 0.07	 
y(2,3,0) = 0.00	 y(3,2,0) = 1.00	 
y(0,1,1) = 0.00	 y(1,0,1) = 1.00	 
y(0,2,1) = 0.70	 y(2,0,1) = 0.30	 
y(0,3,1) = 0.00	 y(3,0,1) = 1.00	 
y(1,2,1) = 0.81	 y(2,1,1) = 0.19	 
y(1,3,1) = 0.11	 y(3,1,1) = 0.89	 
y(2,3,1) = 0.00	 y(3,2,1) = 1.00	 
y(0,1,2) = 0.28	 y(1,0,2) = 0.72	 
y(0,2,2) = 0.10	 y(2,0,2) = 0.90	 
y(0,3,2) = 0.82	 y(3,0,2) = 0.18	 
y(1,2,2) = 0.29	 y(2,1,2) = 0.71	 
y(1,3,2) = 0.91	 y(3,1,2) = 0.09	 
y(2,3,2) = 0.83	 y(3,2,2) = 0.17	 
y(0,1,3) = 0.10	 y(1,0,3) = 0.90	 
y(0,2,3) = 0.63	 y(2,0,3) = 0.37	 
y(0,3,3) = 0.00	 y(3,0,3) = 1.00	 
y(1,2,3) = 0.45	 y(2,1,3) = 0.55	 
y(1,3,3) = 0.64	 y(3,1,3) = 0.36	 
y(2,3,3) = 0.02	 y(3,2,3) = 0.98	 
obj:  1.0
erro
[(0, 1), (1, 2), (1, 3), (0, 0), (3, 3), (1, 0), (2, 1), (1, 1), (2, 3), (2, 2), (0, 3), (0, 2)]
cliques:  0 mip: 0
iterações: 14 cortes cliques encontrados: 10 mip: 1032 objective:  34.99999721493596
Coin0506I Presolve 157 (-171) rows, 90 (-71) columns and 490 (-260) elements
Clp1000I sum of infeasibilities 1.79124e-08 - average 1.14092e-10, 0 fixed columns
Coin0506I Presolve 157 (0) rows, 90 (0) columns and 490 (0) elements
Clp0029I End of values pass after 90 iterations
Clp0000I Optimal - objective value 29
Clp0000I Optimal - objective value 29
Coin0511I After Postsolve, objective 29, infeasibilities - dual 0 (0), primal 0 (0)
Clp0000I Optimal - objective value 29
Clp0000I Optimal - objective value 29
Clp0000I Optimal - objective value 29
Coin0511I After Postsolve, objective 29, infeasibilities - dual 0 (0), primal 0 (0)
Clp0032I Optimal objective 29 - 0 iterations time 0.012, Presolve 0.00, Idiot 0.01
Coin3009W Conflict graph built in 0.000 seconds, density: 0.092%
